\ENCODING=ISO-8859-1
\Problem name: ilog.cplex

Minimize
 obj1:
Subject To
 c1:  X00 + X01 + X02  = 1
 c2:  X10 + X11 + X12  = 1
 c3:  X20 + X21 + X22  = 1
 c4:  A_00 + A_01 + A_02 + A_03 + A_04 + A_05 + A_06 + A_07 + A_08  = 1
 c5:  A_10 + A_11 + A_12 + A_13 + A_14 + A_15 + A_16 + A_17 + A_18  = 1
 c6:  A_20 + A_21 + A_22 + A_23 + A_24 + A_25 + A_26 + A_27 + A_28  = 1
 c7:  - X10 + A_00 <= 0
 c8:  - X20 + A_00 <= 0
 c9:  - X10 + A_01 <= 0
 c10: - X21 + A_01 <= 0
 c11: - X10 + A_02 <= 0
 c12: - X22 + A_02 <= 0
 c13: - X11 + A_03 <= 0
 c14: - X20 + A_03 <= 0
 c15: - X11 + A_04 <= 0
 c16: - X21 + A_04 <= 0
 c17: - X11 + A_05 <= 0
 c18: - X22 + A_05 <= 0
 c19: - X12 + A_06 <= 0
 c20: - X20 + A_06 <= 0
 c21: - X12 + A_07 <= 0
 c22: - X21 + A_07 <= 0
 c23: - X12 + A_08 <= 0
 c24: - X22 + A_08 <= 0
 c25: - X00 + A_10 <= 0
 c26: - X20 + A_10 <= 0
 c27: - X00 + A_11 <= 0
 c28: - X21 + A_11 <= 0
 c29: - X00 + A_12 <= 0
 c30: - X22 + A_12 <= 0
 c31: - X01 + A_13 <= 0
 c32: - X20 + A_13 <= 0
 c33: - X01 + A_14 <= 0
 c34: - X21 + A_14 <= 0
 c35: - X01 + A_15 <= 0
 c36: - X22 + A_15 <= 0
 c37: - X02 + A_16 <= 0
 c38: - X20 + A_16 <= 0
 c39: - X02 + A_17 <= 0
 c40: - X21 + A_17 <= 0
 c41: - X02 + A_18 <= 0
 c42: - X22 + A_18 <= 0
 c43: - X00 + A_20 <= 0
 c44: - X10 + A_20 <= 0
 c45: - X00 + A_21 <= 0
 c46: - X11 + A_21 <= 0
 c47: - X00 + A_22 <= 0
 c48: - X12 + A_22 <= 0
 c49: - X01 + A_23 <= 0
 c50: - X10 + A_23 <= 0
 c51: - X01 + A_24 <= 0
 c52: - X11 + A_24 <= 0
 c53: - X01 + A_25 <= 0
 c54: - X12 + A_25 <= 0
 c55: - X02 + A_26 <= 0
 c56: - X10 + A_26 <= 0
 c57: - X02 + A_27 <= 0
 c58: - X11 + A_27 <= 0
 c59: - X02 + A_28 <= 0
 c60: - X12 + A_28 <= 0
 c61: A_00 - 3 A_01 - 3 A_02 - 2 A_03 - 6 A_04 - 6 A_05 - 2 A_06 - 6 A_07
      - 6 A_08 + U00  = 0
 c62: 4 A_01 + 4 A_04 + 4 A_07 + U01  = 0
 c63: - 2 A_00 - 2 A_01 + 2 A_02 - 2 A_03 - 2 A_04 + 2 A_05 - A_06 - A_07
      + 3 A_08 + U02  = 0
 c64: A_10 - 3 A_11 - 3 A_12 - 2 A_13 - 6 A_14 - 6 A_15 - 2 A_16 - 6 A_17
      - 6 A_18 + U10  = 0
 c65: 4 A_11 + 4 A_14 + 4 A_17 + U11  = 0
 c66: - 2 A_10 - 2 A_11 + 2 A_12 - 2 A_13 - 2 A_14 + 2 A_15 - A_16 - A_17
      + 3 A_18 + U12  = 0
 c67: - 8 A_20 - 4 A_21 - 4 A_22 - 4 A_23 - 4 A_26 + U20  = 0
 c68: - 4 A_21 - 4 A_23 - 8 A_24 - 4 A_25 - 4 A_27 + U21  = 0
 c69: - 4 A_22 - 4 A_25 - 4 A_26 - 4 A_27 - 8 A_28 + U22  = 0
 c70: - 10 X00 + U00 - U01 >= -10
 c71: - 10 X00 + U00 - U02 >= -10
 c72: - 10 X01 - U00 + U01 >= -10
 c73: - 10 X01 + U01 - U02 >= -10
 c74: - 10 X02 - U00 + U02 >= -10
 c75: - 10 X02 - U01 + U02 >= -10
 c76: - 10 X10 + U10 - U11 >= -10
 c77: - 10 X10 + U10 - U12 >= -10
 c78: - 10 X11 - U10 + U11 >= -10
 c79: - 10 X11 + U11 - U12 >= -10
 c80: - 10 X12 - U10 + U12 >= -10
 c81: - 10 X12 - U11 + U12 >= -10
 c82: - 8 X20 + U20 - U21 >= -8
 c83: - 8 X20 + U20 - U22 >= -8
 c84: - 8 X21 - U20 + U21 >= -8
 c85: - 8 X21 + U21 - U22 >= -8
 c86: - 8 X22 - U20 + U22 >= -8
 c87: - 8 X22 - U21 + U22 >= -8
Bounds
 0 <= X00 <= 1
 0 <= X01 <= 1
 0 <= X02 <= 1
 0 <= X10 <= 1
 0 <= X11 <= 1
 0 <= X12 <= 1
 0 <= X20 <= 1
 0 <= X21 <= 1
 0 <= X22 <= 1
 0 <= A_00 <= 1
 0 <= A_01 <= 1
 0 <= A_02 <= 1
 0 <= A_03 <= 1
 0 <= A_04 <= 1
 0 <= A_05 <= 1
 0 <= A_06 <= 1
 0 <= A_07 <= 1
 0 <= A_08 <= 1
 0 <= A_10 <= 1
 0 <= A_11 <= 1
 0 <= A_12 <= 1
 0 <= A_13 <= 1
 0 <= A_14 <= 1
 0 <= A_15 <= 1
 0 <= A_16 <= 1
 0 <= A_17 <= 1
 0 <= A_18 <= 1
 0 <= A_20 <= 1
 0 <= A_21 <= 1
 0 <= A_22 <= 1
 0 <= A_23 <= 1
 0 <= A_24 <= 1
 0 <= A_25 <= 1
 0 <= A_26 <= 1
 0 <= A_27 <= 1
 0 <= A_28 <= 1
      U00 >= -4
      U01 >= -4
      U02 >= -4
      U10 >= -4
      U11 >= -4
      U12 >= -4
      U20 >= -4
      U21 >= -4
      U22 >= -4
Binaries
 X00  X01  X02  X10  X11  X12  X20  X21  X22  A_00  A_01  A_02  A_03  A_04 
 A_05  A_06  A_07  A_08  A_10  A_11  A_12  A_13  A_14  A_15  A_16  A_17  A_18 
 A_20  A_21  A_22  A_23  A_24  A_25  A_26  A_27  A_28 
End
